c 3 reines
p cnf 9 25
1 2 3 0
4 5 6 0
7 8 9 0
-1 -2 0
-4 -5 0
-7 -8 0
-1 -4 0
-2 -5 0
-3 -6 0
-1 -7 0
-2 -8 0
-3 -9 0
-4 -7 0
-5 -8 0
-6 -9 0
-1 -5 0
-1 -9 0
-2 -6 0
-4 -2 0
-4 -8 0
-5 -3 0
-5 -9 0
-7 -5 0
-7 -3 0
-8 -6 0
